NAME : P-n51-k10.480782.tour
COMMENT : Length = 480782
COMMENT : Found by LKH [Keld Helsgaun] Sun Dec 17 22:36:53 2017
TYPE : TOUR
DIMENSION : 60
TOUR_SECTION
1
12
17
3
4
56
7
24
25
44
8
27
55
28
49
9
32
29
57
15
26
14
60
13
5
19
58
6
50
11
31
40
59
33
2
23
21
36
37
53
48
38
16
46
34
52
47
18
45
43
20
42
41
54
39
10
51
35
22
30
-1
EOF
